NAME : mr49
COMMENT : 49-city problem (DISC)
TYPE : TSP
DIMENSION : 49
EDGE_WEIGHT_TYPE : EUC_2D
NODE_COORD_SECTION
1 31 1
2 25 63
3 93 77
4 90 32
5 69 3
6 57 10
7 55 26
8 22 62
9 77 84
10 90 2
11 73 69
12 50 14
13 45 93
14 81 63
15 85 99
16 23 28
17 97 60
18 6 53
19 29 74
20 32 63
21 71 61
22 71 97
23 95 61
24 61 67
25 36 77
26 43 7
27 91 88
28 26 72
29 31 90
30 8 54
31 26 1
32 92 81
33 85 57
34 64 93
35 100 13
36 94 26
37 86 75
38 93 8
39 67 67
40 40 26
41 59 46
42 38 51
43 49 95
44 37 56
45 17 90
46 90 67
47 55 50
48 83 61
49 57 2
EOF
